; benchmark generated from python API
(set-info :status unknown)
(declare-fun cell_1_4 () Int)
(declare-fun cell_2_7 () Int)
(declare-fun cell_3_1 () Int)
(declare-fun cell_4_3 () Int)
(declare-fun cell_5_6 () Int)
(declare-fun cell_1_1 () Int)
(declare-fun cell_2_1 () Int)
(declare-fun cell_4_1 () Int)
(declare-fun cell_5_1 () Int)
(declare-fun cell_6_1 () Int)
(declare-fun cell_7_1 () Int)
(declare-fun cell_8_1 () Int)
(declare-fun cell_9_1 () Int)
(declare-fun cell_1_2 () Int)
(declare-fun cell_2_2 () Int)
(declare-fun cell_3_2 () Int)
(declare-fun cell_4_2 () Int)
(declare-fun cell_5_2 () Int)
(declare-fun cell_6_2 () Int)
(declare-fun cell_7_2 () Int)
(declare-fun cell_8_2 () Int)
(declare-fun cell_9_2 () Int)
(declare-fun cell_1_3 () Int)
(declare-fun cell_2_3 () Int)
(declare-fun cell_3_3 () Int)
(declare-fun cell_5_3 () Int)
(declare-fun cell_6_3 () Int)
(declare-fun cell_7_3 () Int)
(declare-fun cell_8_3 () Int)
(declare-fun cell_9_3 () Int)
(declare-fun cell_2_4 () Int)
(declare-fun cell_3_4 () Int)
(declare-fun cell_4_4 () Int)
(declare-fun cell_5_4 () Int)
(declare-fun cell_6_4 () Int)
(declare-fun cell_7_4 () Int)
(declare-fun cell_8_4 () Int)
(declare-fun cell_9_4 () Int)
(declare-fun cell_1_5 () Int)
(declare-fun cell_2_5 () Int)
(declare-fun cell_3_5 () Int)
(declare-fun cell_4_5 () Int)
(declare-fun cell_5_5 () Int)
(declare-fun cell_6_5 () Int)
(declare-fun cell_7_5 () Int)
(declare-fun cell_8_5 () Int)
(declare-fun cell_9_5 () Int)
(declare-fun cell_1_6 () Int)
(declare-fun cell_2_6 () Int)
(declare-fun cell_3_6 () Int)
(declare-fun cell_4_6 () Int)
(declare-fun cell_6_6 () Int)
(declare-fun cell_7_6 () Int)
(declare-fun cell_8_6 () Int)
(declare-fun cell_9_6 () Int)
(declare-fun cell_1_7 () Int)
(declare-fun cell_3_7 () Int)
(declare-fun cell_4_7 () Int)
(declare-fun cell_5_7 () Int)
(declare-fun cell_6_7 () Int)
(declare-fun cell_7_7 () Int)
(declare-fun cell_8_7 () Int)
(declare-fun cell_9_7 () Int)
(declare-fun cell_1_8 () Int)
(declare-fun cell_2_8 () Int)
(declare-fun cell_3_8 () Int)
(declare-fun cell_4_8 () Int)
(declare-fun cell_5_8 () Int)
(declare-fun cell_6_8 () Int)
(declare-fun cell_7_8 () Int)
(declare-fun cell_8_8 () Int)
(declare-fun cell_9_8 () Int)
(declare-fun cell_1_9 () Int)
(declare-fun cell_2_9 () Int)
(declare-fun cell_3_9 () Int)
(declare-fun cell_4_9 () Int)
(declare-fun cell_5_9 () Int)
(declare-fun cell_6_9 () Int)
(declare-fun cell_7_9 () Int)
(declare-fun cell_8_9 () Int)
(declare-fun cell_9_9 () Int)
(assert
 (= cell_1_4 1))
(assert
 (= cell_2_7 1))
(assert
 (= cell_3_1 1))
(assert
 (= cell_4_3 1))
(assert
 (= cell_5_6 1))
(assert
 (let (($x3710 (= cell_1_1 9)))
 (let (($x792 (= cell_1_1 8)))
 (let (($x1716 (= cell_1_1 7)))
 (let (($x3369 (= cell_1_1 6)))
 (let (($x2770 (= cell_1_1 5)))
 (let (($x2798 (= cell_1_1 4)))
 (let (($x738 (= cell_1_1 3)))
 (let (($x3579 (= cell_1_1 2)))
 (let (($x2511 (= cell_1_1 1)))
 (or $x2511 $x3579 $x738 $x2798 $x2770 $x3369 $x1716 $x792 $x3710)))))))))))
(assert
 (let (($x263 (= cell_2_1 9)))
 (let (($x916 (= cell_2_1 8)))
 (let (($x385 (= cell_2_1 7)))
 (let (($x3772 (= cell_2_1 6)))
 (let (($x2942 (= cell_2_1 5)))
 (let (($x3481 (= cell_2_1 4)))
 (let (($x2723 (= cell_2_1 3)))
 (let (($x1845 (= cell_2_1 2)))
 (let (($x1197 (= cell_2_1 1)))
 (or $x1197 $x1845 $x2723 $x3481 $x2942 $x3772 $x385 $x916 $x263)))))))))))
(assert
 (let (($x1223 (= cell_3_1 1)))
 (or $x1223 (= cell_3_1 2) (= cell_3_1 3) (= cell_3_1 4) (= cell_3_1 5) (= cell_3_1 6) (= cell_3_1 7) (= cell_3_1 8) (= cell_3_1 9))))
(assert
 (let (($x3470 (= cell_4_1 9)))
 (let (($x779 (= cell_4_1 8)))
 (let (($x3258 (= cell_4_1 7)))
 (let (($x511 (= cell_4_1 6)))
 (let (($x3769 (= cell_4_1 5)))
 (let (($x1997 (= cell_4_1 4)))
 (let (($x1720 (= cell_4_1 3)))
 (let (($x2860 (= cell_4_1 2)))
 (let (($x2101 (= cell_4_1 1)))
 (or $x2101 $x2860 $x1720 $x1997 $x3769 $x511 $x3258 $x779 $x3470)))))))))))
(assert
 (let (($x141 (= cell_5_1 9)))
 (let (($x453 (= cell_5_1 8)))
 (let (($x921 (= cell_5_1 7)))
 (let (($x1103 (= cell_5_1 6)))
 (let (($x2455 (= cell_5_1 5)))
 (let (($x1156 (= cell_5_1 4)))
 (let (($x2597 (= cell_5_1 3)))
 (let (($x2460 (= cell_5_1 2)))
 (let (($x3620 (= cell_5_1 1)))
 (or $x3620 $x2460 $x2597 $x1156 $x2455 $x1103 $x921 $x453 $x141)))))))))))
(assert
 (let (($x2720 (= cell_6_1 1)))
 (or $x2720 (= cell_6_1 2) (= cell_6_1 3) (= cell_6_1 4) (= cell_6_1 5) (= cell_6_1 6) (= cell_6_1 7) (= cell_6_1 8) (= cell_6_1 9))))
(assert
 (let (($x3614 (= cell_7_1 1)))
 (or $x3614 (= cell_7_1 2) (= cell_7_1 3) (= cell_7_1 4) (= cell_7_1 5) (= cell_7_1 6) (= cell_7_1 7) (= cell_7_1 8) (= cell_7_1 9))))
(assert
 (let (($x1123 (= cell_8_1 1)))
 (or $x1123 (= cell_8_1 2) (= cell_8_1 3) (= cell_8_1 4) (= cell_8_1 5) (= cell_8_1 6) (= cell_8_1 7) (= cell_8_1 8) (= cell_8_1 9))))
(assert
 (let (($x382 (= cell_9_1 1)))
 (or $x382 (= cell_9_1 2) (= cell_9_1 3) (= cell_9_1 4) (= cell_9_1 5) (= cell_9_1 6) (= cell_9_1 7) (= cell_9_1 8) (= cell_9_1 9))))
(assert
 (let (($x329 (= cell_1_2 9)))
 (let (($x2505 (= cell_1_2 8)))
 (let (($x211 (= cell_1_2 7)))
 (let (($x3133 (= cell_1_2 6)))
 (let (($x3336 (= cell_1_2 5)))
 (let (($x2431 (= cell_1_2 4)))
 (let (($x4364 (= cell_1_2 3)))
 (let (($x9675 (= cell_1_2 2)))
 (let (($x1802 (= cell_1_2 1)))
 (or $x1802 $x9675 $x4364 $x2431 $x3336 $x3133 $x211 $x2505 $x329)))))))))))
(assert
 (let (($x581 (= cell_2_2 9)))
 (let (($x4080 (= cell_2_2 8)))
 (let (($x899 (= cell_2_2 7)))
 (let (($x3599 (= cell_2_2 6)))
 (let (($x1761 (= cell_2_2 5)))
 (let (($x558 (= cell_2_2 4)))
 (let (($x266 (= cell_2_2 3)))
 (let (($x434 (= cell_2_2 2)))
 (let (($x2397 (= cell_2_2 1)))
 (or $x2397 $x434 $x266 $x558 $x1761 $x3599 $x899 $x4080 $x581)))))))))))
(assert
 (let (($x562 (= cell_3_2 9)))
 (let (($x3192 (= cell_3_2 8)))
 (let (($x1769 (= cell_3_2 7)))
 (let (($x85 (= cell_3_2 6)))
 (let (($x3321 (= cell_3_2 5)))
 (let (($x3770 (= cell_3_2 4)))
 (let (($x754 (= cell_3_2 3)))
 (let (($x1169 (= cell_3_2 2)))
 (let (($x3705 (= cell_3_2 1)))
 (or $x3705 $x1169 $x754 $x3770 $x3321 $x85 $x1769 $x3192 $x562)))))))))))
(assert
 (let (($x3347 (= cell_4_2 9)))
 (let (($x3811 (= cell_4_2 8)))
 (let (($x1131 (= cell_4_2 7)))
 (let (($x206 (= cell_4_2 6)))
 (let (($x1696 (= cell_4_2 5)))
 (let (($x2271 (= cell_4_2 4)))
 (let (($x3050 (= cell_4_2 3)))
 (let (($x443 (= cell_4_2 2)))
 (let (($x1964 (= cell_4_2 1)))
 (or $x1964 $x443 $x3050 $x2271 $x1696 $x206 $x1131 $x3811 $x3347)))))))))))
(assert
 (let (($x1139 (= cell_5_2 9)))
 (let (($x2810 (= cell_5_2 8)))
 (let (($x2604 (= cell_5_2 7)))
 (let (($x3794 (= cell_5_2 6)))
 (let (($x1210 (= cell_5_2 5)))
 (let (($x2119 (= cell_5_2 4)))
 (let (($x5015 (= cell_5_2 3)))
 (let (($x1415 (= cell_5_2 2)))
 (let (($x3627 (= cell_5_2 1)))
 (or $x3627 $x1415 $x5015 $x2119 $x1210 $x3794 $x2604 $x2810 $x1139)))))))))))
(assert
 (let (($x1593 (= cell_6_2 1)))
 (or $x1593 (= cell_6_2 2) (= cell_6_2 3) (= cell_6_2 4) (= cell_6_2 5) (= cell_6_2 6) (= cell_6_2 7) (= cell_6_2 8) (= cell_6_2 9))))
(assert
 (let (($x513 (= cell_7_2 1)))
 (or $x513 (= cell_7_2 2) (= cell_7_2 3) (= cell_7_2 4) (= cell_7_2 5) (= cell_7_2 6) (= cell_7_2 7) (= cell_7_2 8) (= cell_7_2 9))))
(assert
 (or (= cell_8_2 1) (= cell_8_2 2) (= cell_8_2 3) (= cell_8_2 4) (= cell_8_2 5) (= cell_8_2 6) (= cell_8_2 7) (= cell_8_2 8) (= cell_8_2 9)))
(assert
 (let (($x2188 (= cell_9_2 1)))
 (or $x2188 (= cell_9_2 2) (= cell_9_2 3) (= cell_9_2 4) (= cell_9_2 5) (= cell_9_2 6) (= cell_9_2 7) (= cell_9_2 8) (= cell_9_2 9))))
(assert
 (let (($x126 (= cell_1_3 9)))
 (let (($x2167 (= cell_1_3 8)))
 (let (($x2965 (= cell_1_3 7)))
 (let (($x3216 (= cell_1_3 6)))
 (let (($x887 (= cell_1_3 5)))
 (let (($x3688 (= cell_1_3 4)))
 (let (($x3118 (= cell_1_3 3)))
 (let (($x2396 (= cell_1_3 2)))
 (let (($x1859 (= cell_1_3 1)))
 (or $x1859 $x2396 $x3118 $x3688 $x887 $x3216 $x2965 $x2167 $x126)))))))))))
(assert
 (let (($x2726 (= cell_2_3 9)))
 (let (($x2502 (= cell_2_3 8)))
 (let (($x1051 (= cell_2_3 7)))
 (let (($x50 (= cell_2_3 6)))
 (let (($x2162 (= cell_2_3 5)))
 (let (($x1100 (= cell_2_3 4)))
 (let (($x3052 (= cell_2_3 3)))
 (let (($x1489 (= cell_2_3 2)))
 (let (($x202 (= cell_2_3 1)))
 (or $x202 $x1489 $x3052 $x1100 $x2162 $x50 $x1051 $x2502 $x2726)))))))))))
(assert
 (let (($x193 (= cell_3_3 9)))
 (let (($x2961 (= cell_3_3 8)))
 (let (($x548 (= cell_3_3 7)))
 (let (($x162 (= cell_3_3 6)))
 (let (($x217 (= cell_3_3 5)))
 (let (($x383 (= cell_3_3 4)))
 (let (($x1653 (= cell_3_3 3)))
 (let (($x312 (= cell_3_3 2)))
 (let (($x1639 (= cell_3_3 1)))
 (or $x1639 $x312 $x1653 $x383 $x217 $x162 $x548 $x2961 $x193)))))))))))
(assert
 (let (($x449 (= cell_4_3 1)))
 (or $x449 (= cell_4_3 2) (= cell_4_3 3) (= cell_4_3 4) (= cell_4_3 5) (= cell_4_3 6) (= cell_4_3 7) (= cell_4_3 8) (= cell_4_3 9))))
(assert
 (let (($x1798 (= cell_5_3 9)))
 (let (($x1562 (= cell_5_3 8)))
 (let (($x1058 (= cell_5_3 7)))
 (let (($x3696 (= cell_5_3 6)))
 (let (($x1695 (= cell_5_3 5)))
 (let (($x2407 (= cell_5_3 4)))
 (let (($x2089 (= cell_5_3 3)))
 (let (($x175 (= cell_5_3 2)))
 (let (($x2335 (= cell_5_3 1)))
 (or $x2335 $x175 $x2089 $x2407 $x1695 $x3696 $x1058 $x1562 $x1798)))))))))))
(assert
 (let (($x1810 (= cell_6_3 1)))
 (or $x1810 (= cell_6_3 2) (= cell_6_3 3) (= cell_6_3 4) (= cell_6_3 5) (= cell_6_3 6) (= cell_6_3 7) (= cell_6_3 8) (= cell_6_3 9))))
(assert
 (let (($x622 (= cell_7_3 1)))
 (or $x622 (= cell_7_3 2) (= cell_7_3 3) (= cell_7_3 4) (= cell_7_3 5) (= cell_7_3 6) (= cell_7_3 7) (= cell_7_3 8) (= cell_7_3 9))))
(assert
 (let (($x940 (= cell_8_3 1)))
 (or $x940 (= cell_8_3 2) (= cell_8_3 3) (= cell_8_3 4) (= cell_8_3 5) (= cell_8_3 6) (= cell_8_3 7) (= cell_8_3 8) (= cell_8_3 9))))
(assert
 (let (($x128 (= cell_9_3 1)))
 (or $x128 (= cell_9_3 2) (= cell_9_3 3) (= cell_9_3 4) (= cell_9_3 5) (= cell_9_3 6) (= cell_9_3 7) (= cell_9_3 8) (= cell_9_3 9))))
(assert
 (let (($x2489 (= cell_1_4 1)))
 (or $x2489 (= cell_1_4 2) (= cell_1_4 3) (= cell_1_4 4) (= cell_1_4 5) (= cell_1_4 6) (= cell_1_4 7) (= cell_1_4 8) (= cell_1_4 9))))
(assert
 (let (($x3221 (= cell_2_4 9)))
 (let (($x1201 (= cell_2_4 8)))
 (let (($x3273 (= cell_2_4 7)))
 (let (($x3120 (= cell_2_4 6)))
 (let (($x2313 (= cell_2_4 5)))
 (let (($x3056 (= cell_2_4 4)))
 (let (($x705 (= cell_2_4 3)))
 (let (($x2491 (= cell_2_4 2)))
 (let (($x2991 (= cell_2_4 1)))
 (or $x2991 $x2491 $x705 $x3056 $x2313 $x3120 $x3273 $x1201 $x3221)))))))))))
(assert
 (let (($x2864 (= cell_3_4 9)))
 (let (($x2053 (= cell_3_4 8)))
 (let (($x624 (= cell_3_4 7)))
 (let (($x307 (= cell_3_4 6)))
 (let (($x661 (= cell_3_4 5)))
 (let (($x9292 (= cell_3_4 4)))
 (let (($x2067 (= cell_3_4 3)))
 (let (($x2393 (= cell_3_4 2)))
 (let (($x1472 (= cell_3_4 1)))
 (or $x1472 $x2393 $x2067 $x9292 $x661 $x307 $x624 $x2053 $x2864)))))))))))
(assert
 (let (($x972 (= cell_4_4 9)))
 (let (($x403 (= cell_4_4 8)))
 (let (($x298 (= cell_4_4 7)))
 (let (($x3007 (= cell_4_4 6)))
 (let (($x1863 (= cell_4_4 5)))
 (let (($x3673 (= cell_4_4 4)))
 (let (($x2687 (= cell_4_4 3)))
 (let (($x2142 (= cell_4_4 2)))
 (let (($x3782 (= cell_4_4 1)))
 (or $x3782 $x2142 $x2687 $x3673 $x1863 $x3007 $x298 $x403 $x972)))))))))))
(assert
 (let (($x1432 (= cell_5_4 9)))
 (let (($x2922 (= cell_5_4 8)))
 (let (($x3109 (= cell_5_4 7)))
 (let (($x1136 (= cell_5_4 6)))
 (let (($x2178 (= cell_5_4 5)))
 (let (($x1697 (= cell_5_4 4)))
 (let (($x1368 (= cell_5_4 3)))
 (let (($x1842 (= cell_5_4 2)))
 (let (($x3267 (= cell_5_4 1)))
 (or $x3267 $x1842 $x1368 $x1697 $x2178 $x1136 $x3109 $x2922 $x1432)))))))))))
(assert
 (let (($x2967 (= cell_6_4 1)))
 (or $x2967 (= cell_6_4 2) (= cell_6_4 3) (= cell_6_4 4) (= cell_6_4 5) (= cell_6_4 6) (= cell_6_4 7) (= cell_6_4 8) (= cell_6_4 9))))
(assert
 (let (($x3317 (= cell_7_4 1)))
 (or $x3317 (= cell_7_4 2) (= cell_7_4 3) (= cell_7_4 4) (= cell_7_4 5) (= cell_7_4 6) (= cell_7_4 7) (= cell_7_4 8) (= cell_7_4 9))))
(assert
 (let (($x3694 (= cell_8_4 1)))
 (or $x3694 (= cell_8_4 2) (= cell_8_4 3) (= cell_8_4 4) (= cell_8_4 5) (= cell_8_4 6) (= cell_8_4 7) (= cell_8_4 8) (= cell_8_4 9))))
(assert
 (let (($x759 (= cell_9_4 1)))
 (or $x759 (= cell_9_4 2) (= cell_9_4 3) (= cell_9_4 4) (= cell_9_4 5) (= cell_9_4 6) (= cell_9_4 7) (= cell_9_4 8) (= cell_9_4 9))))
(assert
 (let (($x2780 (= cell_1_5 1)))
 (or $x2780 (= cell_1_5 2) (= cell_1_5 3) (= cell_1_5 4) (= cell_1_5 5) (= cell_1_5 6) (= cell_1_5 7) (= cell_1_5 8) (= cell_1_5 9))))
(assert
 (let (($x2695 (= cell_2_5 9)))
 (let (($x2068 (= cell_2_5 8)))
 (let (($x1744 (= cell_2_5 7)))
 (let (($x3603 (= cell_2_5 6)))
 (let (($x236 (= cell_2_5 5)))
 (let (($x2446 (= cell_2_5 4)))
 (let (($x3396 (= cell_2_5 3)))
 (let (($x2410 (= cell_2_5 2)))
 (let (($x3171 (= cell_2_5 1)))
 (or $x3171 $x2410 $x3396 $x2446 $x236 $x3603 $x1744 $x2068 $x2695)))))))))))
(assert
 (let (($x1178 (= cell_3_5 1)))
 (or $x1178 (= cell_3_5 2) (= cell_3_5 3) (= cell_3_5 4) (= cell_3_5 5) (= cell_3_5 6) (= cell_3_5 7) (= cell_3_5 8) (= cell_3_5 9))))
(assert
 (let (($x2776 (= cell_4_5 9)))
 (let (($x3661 (= cell_4_5 8)))
 (let (($x495 (= cell_4_5 7)))
 (let (($x2290 (= cell_4_5 6)))
 (let (($x2684 (= cell_4_5 5)))
 (let (($x2940 (= cell_4_5 4)))
 (let (($x3638 (= cell_4_5 3)))
 (let (($x557 (= cell_4_5 2)))
 (let (($x2555 (= cell_4_5 1)))
 (or $x2555 $x557 $x3638 $x2940 $x2684 $x2290 $x495 $x3661 $x2776)))))))))))
(assert
 (let (($x2298 (= cell_5_5 9)))
 (let (($x1329 (= cell_5_5 8)))
 (let (($x2842 (= cell_5_5 7)))
 (let (($x275 (= cell_5_5 6)))
 (let (($x1470 (= cell_5_5 5)))
 (let (($x1406 (= cell_5_5 4)))
 (let (($x2906 (= cell_5_5 3)))
 (let (($x2096 (= cell_5_5 2)))
 (let (($x2331 (= cell_5_5 1)))
 (or $x2331 $x2096 $x2906 $x1406 $x1470 $x275 $x2842 $x1329 $x2298)))))))))))
(assert
 (let (($x2379 (= cell_6_5 1)))
 (or $x2379 (= cell_6_5 2) (= cell_6_5 3) (= cell_6_5 4) (= cell_6_5 5) (= cell_6_5 6) (= cell_6_5 7) (= cell_6_5 8) (= cell_6_5 9))))
(assert
 (or (= cell_7_5 1) (= cell_7_5 2) (= cell_7_5 3) (= cell_7_5 4) (= cell_7_5 5) (= cell_7_5 6) (= cell_7_5 7) (= cell_7_5 8) (= cell_7_5 9)))
(assert
 (or (= cell_8_5 1) (= cell_8_5 2) (= cell_8_5 3) (= cell_8_5 4) (= cell_8_5 5) (= cell_8_5 6) (= cell_8_5 7) (= cell_8_5 8) (= cell_8_5 9)))
(assert
 (or (= cell_9_5 1) (= cell_9_5 2) (= cell_9_5 3) (= cell_9_5 4) (= cell_9_5 5) (= cell_9_5 6) (= cell_9_5 7) (= cell_9_5 8) (= cell_9_5 9)))
(assert
 (let (($x1638 (= cell_1_6 9)))
 (let (($x3718 (= cell_1_6 8)))
 (let (($x490 (= cell_1_6 7)))
 (let (($x1921 (= cell_1_6 6)))
 (let (($x304 (= cell_1_6 5)))
 (let (($x1591 (= cell_1_6 4)))
 (let (($x571 (= cell_1_6 3)))
 (let (($x2027 (= cell_1_6 2)))
 (let (($x3747 (= cell_1_6 1)))
 (or $x3747 $x2027 $x571 $x1591 $x304 $x1921 $x490 $x3718 $x1638)))))))))))
(assert
 (let (($x2409 (= cell_2_6 9)))
 (let (($x670 (= cell_2_6 8)))
 (let (($x2570 (= cell_2_6 7)))
 (let (($x369 (= cell_2_6 6)))
 (let (($x573 (= cell_2_6 5)))
 (let (($x1698 (= cell_2_6 4)))
 (let (($x3467 (= cell_2_6 3)))
 (let (($x3069 (= cell_2_6 2)))
 (let (($x1050 (= cell_2_6 1)))
 (or $x1050 $x3069 $x3467 $x1698 $x573 $x369 $x2570 $x670 $x2409)))))))))))
(assert
 (let (($x3668 (= cell_3_6 9)))
 (let (($x631 (= cell_3_6 8)))
 (let (($x1352 (= cell_3_6 7)))
 (let (($x1186 (= cell_3_6 6)))
 (let (($x3164 (= cell_3_6 5)))
 (let (($x2007 (= cell_3_6 4)))
 (let (($x2683 (= cell_3_6 3)))
 (let (($x992 (= cell_3_6 2)))
 (let (($x680 (= cell_3_6 1)))
 (or $x680 $x992 $x2683 $x2007 $x3164 $x1186 $x1352 $x631 $x3668)))))))))))
(assert
 (let (($x2905 (= cell_4_6 9)))
 (let (($x3819 (= cell_4_6 8)))
 (let (($x171 (= cell_4_6 7)))
 (let (($x897 (= cell_4_6 6)))
 (let (($x1188 (= cell_4_6 5)))
 (let (($x2402 (= cell_4_6 4)))
 (let (($x1599 (= cell_4_6 3)))
 (let (($x1513 (= cell_4_6 2)))
 (let (($x3200 (= cell_4_6 1)))
 (or $x3200 $x1513 $x1599 $x2402 $x1188 $x897 $x171 $x3819 $x2905)))))))))))
(assert
 (let (($x2717 (= cell_5_6 1)))
 (or $x2717 (= cell_5_6 2) (= cell_5_6 3) (= cell_5_6 4) (= cell_5_6 5) (= cell_5_6 6) (= cell_5_6 7) (= cell_5_6 8) (= cell_5_6 9))))
(assert
 (let (($x2706 (= cell_6_6 1)))
 (or $x2706 (= cell_6_6 2) (= cell_6_6 3) (= cell_6_6 4) (= cell_6_6 5) (= cell_6_6 6) (= cell_6_6 7) (= cell_6_6 8) (= cell_6_6 9))))
(assert
 (let (($x2471 (= cell_7_6 1)))
 (or $x2471 (= cell_7_6 2) (= cell_7_6 3) (= cell_7_6 4) (= cell_7_6 5) (= cell_7_6 6) (= cell_7_6 7) (= cell_7_6 8) (= cell_7_6 9))))
(assert
 (let (($x1485 (= cell_8_6 1)))
 (or $x1485 (= cell_8_6 2) (= cell_8_6 3) (= cell_8_6 4) (= cell_8_6 5) (= cell_8_6 6) (= cell_8_6 7) (= cell_8_6 8) (= cell_8_6 9))))
(assert
 (let (($x2625 (= cell_9_6 1)))
 (or $x2625 (= cell_9_6 2) (= cell_9_6 3) (= cell_9_6 4) (= cell_9_6 5) (= cell_9_6 6) (= cell_9_6 7) (= cell_9_6 8) (= cell_9_6 9))))
(assert
 (let (($x3761 (= cell_1_7 9)))
 (let (($x2308 (= cell_1_7 8)))
 (let (($x1009 (= cell_1_7 7)))
 (let (($x213 (= cell_1_7 6)))
 (let (($x2584 (= cell_1_7 5)))
 (let (($x314 (= cell_1_7 4)))
 (let (($x584 (= cell_1_7 3)))
 (let (($x1517 (= cell_1_7 2)))
 (let (($x3778 (= cell_1_7 1)))
 (or $x3778 $x1517 $x584 $x314 $x2584 $x213 $x1009 $x2308 $x3761)))))))))))
(assert
 (let (($x614 (= cell_2_7 1)))
 (or $x614 (= cell_2_7 2) (= cell_2_7 3) (= cell_2_7 4) (= cell_2_7 5) (= cell_2_7 6) (= cell_2_7 7) (= cell_2_7 8) (= cell_2_7 9))))
(assert
 (let (($x3357 (= cell_3_7 1)))
 (or $x3357 (= cell_3_7 2) (= cell_3_7 3) (= cell_3_7 4) (= cell_3_7 5) (= cell_3_7 6) (= cell_3_7 7) (= cell_3_7 8) (= cell_3_7 9))))
(assert
 (let (($x2416 (= cell_4_7 9)))
 (let (($x3108 (= cell_4_7 8)))
 (let (($x3202 (= cell_4_7 7)))
 (let (($x1583 (= cell_4_7 6)))
 (let (($x1430 (= cell_4_7 5)))
 (let (($x2408 (= cell_4_7 4)))
 (let (($x1751 (= cell_4_7 3)))
 (let (($x1743 (= cell_4_7 2)))
 (let (($x3292 (= cell_4_7 1)))
 (or $x3292 $x1743 $x1751 $x2408 $x1430 $x1583 $x3202 $x3108 $x2416)))))))))))
(assert
 (let (($x3420 (= cell_5_7 1)))
 (or $x3420 (= cell_5_7 2) (= cell_5_7 3) (= cell_5_7 4) (= cell_5_7 5) (= cell_5_7 6) (= cell_5_7 7) (= cell_5_7 8) (= cell_5_7 9))))
(assert
 (let (($x3749 (= cell_6_7 1)))
 (or $x3749 (= cell_6_7 2) (= cell_6_7 3) (= cell_6_7 4) (= cell_6_7 5) (= cell_6_7 6) (= cell_6_7 7) (= cell_6_7 8) (= cell_6_7 9))))
(assert
 (let (($x294 (= cell_7_7 1)))
 (or $x294 (= cell_7_7 2) (= cell_7_7 3) (= cell_7_7 4) (= cell_7_7 5) (= cell_7_7 6) (= cell_7_7 7) (= cell_7_7 8) (= cell_7_7 9))))
(assert
 (let (($x3682 (= cell_8_7 1)))
 (or $x3682 (= cell_8_7 2) (= cell_8_7 3) (= cell_8_7 4) (= cell_8_7 5) (= cell_8_7 6) (= cell_8_7 7) (= cell_8_7 8) (= cell_8_7 9))))
(assert
 (let (($x3256 (= cell_9_7 1)))
 (or $x3256 (= cell_9_7 2) (= cell_9_7 3) (= cell_9_7 4) (= cell_9_7 5) (= cell_9_7 6) (= cell_9_7 7) (= cell_9_7 8) (= cell_9_7 9))))
(assert
 (let (($x3754 (= cell_1_8 9)))
 (let (($x2463 (= cell_1_8 8)))
 (let (($x3203 (= cell_1_8 7)))
 (let (($x3095 (= cell_1_8 6)))
 (let (($x1987 (= cell_1_8 5)))
 (let (($x1418 (= cell_1_8 4)))
 (let (($x2550 (= cell_1_8 3)))
 (let (($x1998 (= cell_1_8 2)))
 (let (($x3218 (= cell_1_8 1)))
 (or $x3218 $x1998 $x2550 $x1418 $x1987 $x3095 $x3203 $x2463 $x3754)))))))))))
(assert
 (let (($x2807 (= cell_2_8 1)))
 (or $x2807 (= cell_2_8 2) (= cell_2_8 3) (= cell_2_8 4) (= cell_2_8 5) (= cell_2_8 6) (= cell_2_8 7) (= cell_2_8 8) (= cell_2_8 9))))
(assert
 (let (($x2705 (= cell_3_8 9)))
 (let (($x3545 (= cell_3_8 8)))
 (let (($x697 (= cell_3_8 7)))
 (let (($x1316 (= cell_3_8 6)))
 (let (($x2574 (= cell_3_8 5)))
 (let (($x2456 (= cell_3_8 4)))
 (let (($x2809 (= cell_3_8 3)))
 (let (($x1012 (= cell_3_8 2)))
 (let (($x1790 (= cell_3_8 1)))
 (or $x1790 $x1012 $x2809 $x2456 $x2574 $x1316 $x697 $x3545 $x2705)))))))))))
(assert
 (let (($x3651 (= cell_4_8 1)))
 (or $x3651 (= cell_4_8 2) (= cell_4_8 3) (= cell_4_8 4) (= cell_4_8 5) (= cell_4_8 6) (= cell_4_8 7) (= cell_4_8 8) (= cell_4_8 9))))
(assert
 (let (($x3316 (= cell_5_8 1)))
 (or $x3316 (= cell_5_8 2) (= cell_5_8 3) (= cell_5_8 4) (= cell_5_8 5) (= cell_5_8 6) (= cell_5_8 7) (= cell_5_8 8) (= cell_5_8 9))))
(assert
 (let (($x1708 (= cell_6_8 1)))
 (or $x1708 (= cell_6_8 2) (= cell_6_8 3) (= cell_6_8 4) (= cell_6_8 5) (= cell_6_8 6) (= cell_6_8 7) (= cell_6_8 8) (= cell_6_8 9))))
(assert
 (let (($x3473 (= cell_7_8 1)))
 (or $x3473 (= cell_7_8 2) (= cell_7_8 3) (= cell_7_8 4) (= cell_7_8 5) (= cell_7_8 6) (= cell_7_8 7) (= cell_7_8 8) (= cell_7_8 9))))
(assert
 (or (= cell_8_8 1) (= cell_8_8 2) (= cell_8_8 3) (= cell_8_8 4) (= cell_8_8 5) (= cell_8_8 6) (= cell_8_8 7) (= cell_8_8 8) (= cell_8_8 9)))
(assert
 (let (($x2186 (= cell_9_8 1)))
 (or $x2186 (= cell_9_8 2) (= cell_9_8 3) (= cell_9_8 4) (= cell_9_8 5) (= cell_9_8 6) (= cell_9_8 7) (= cell_9_8 8) (= cell_9_8 9))))
(assert
 (let (($x2709 (= cell_1_9 9)))
 (let (($x3338 (= cell_1_9 8)))
 (let (($x399 (= cell_1_9 7)))
 (let (($x208 (= cell_1_9 6)))
 (let (($x2013 (= cell_1_9 5)))
 (let (($x2731 (= cell_1_9 4)))
 (let (($x428 (= cell_1_9 3)))
 (let (($x986 (= cell_1_9 2)))
 (let (($x907 (= cell_1_9 1)))
 (or $x907 $x986 $x428 $x2731 $x2013 $x208 $x399 $x3338 $x2709)))))))))))
(assert
 (let (($x3314 (= cell_2_9 9)))
 (let (($x1883 (= cell_2_9 8)))
 (let (($x2470 (= cell_2_9 7)))
 (let (($x3077 (= cell_2_9 6)))
 (let (($x1060 (= cell_2_9 5)))
 (let (($x1398 (= cell_2_9 4)))
 (let (($x2250 (= cell_2_9 3)))
 (let (($x583 (= cell_2_9 2)))
 (let (($x3471 (= cell_2_9 1)))
 (or $x3471 $x583 $x2250 $x1398 $x1060 $x3077 $x2470 $x1883 $x3314)))))))))))
(assert
 (let (($x2069 (= cell_3_9 1)))
 (or $x2069 (= cell_3_9 2) (= cell_3_9 3) (= cell_3_9 4) (= cell_3_9 5) (= cell_3_9 6) (= cell_3_9 7) (= cell_3_9 8) (= cell_3_9 9))))
(assert
 (let (($x876 (= cell_4_9 1)))
 (or $x876 (= cell_4_9 2) (= cell_4_9 3) (= cell_4_9 4) (= cell_4_9 5) (= cell_4_9 6) (= cell_4_9 7) (= cell_4_9 8) (= cell_4_9 9))))
(assert
 (let (($x72 (= cell_5_9 1)))
 (or $x72 (= cell_5_9 2) (= cell_5_9 3) (= cell_5_9 4) (= cell_5_9 5) (= cell_5_9 6) (= cell_5_9 7) (= cell_5_9 8) (= cell_5_9 9))))
(assert
 (or (= cell_6_9 1) (= cell_6_9 2) (= cell_6_9 3) (= cell_6_9 4) (= cell_6_9 5) (= cell_6_9 6) (= cell_6_9 7) (= cell_6_9 8) (= cell_6_9 9)))
(assert
 (or (= cell_7_9 1) (= cell_7_9 2) (= cell_7_9 3) (= cell_7_9 4) (= cell_7_9 5) (= cell_7_9 6) (= cell_7_9 7) (= cell_7_9 8) (= cell_7_9 9)))
(assert
 (let (($x953 (= cell_8_9 1)))
 (or $x953 (= cell_8_9 2) (= cell_8_9 3) (= cell_8_9 4) (= cell_8_9 5) (= cell_8_9 6) (= cell_8_9 7) (= cell_8_9 8) (= cell_8_9 9))))
(assert
 (or (= cell_9_9 1) (= cell_9_9 2) (= cell_9_9 3) (= cell_9_9 4) (= cell_9_9 5) (= cell_9_9 6) (= cell_9_9 7) (= cell_9_9 8) (= cell_9_9 9)))
(assert
 (and (distinct cell_1_1 cell_1_2 cell_1_3 cell_1_4 cell_1_5 cell_1_6 cell_1_7 cell_1_8 cell_1_9) true))
(assert
 (and (distinct cell_2_1 cell_2_2 cell_2_3 cell_2_4 cell_2_5 cell_2_6 cell_2_7 cell_2_8 cell_2_9) true))
(assert
 (and (distinct cell_3_1 cell_3_2 cell_3_3 cell_3_4 cell_3_5 cell_3_6 cell_3_7 cell_3_8 cell_3_9) true))
(assert
 (and (distinct cell_4_1 cell_4_2 cell_4_3 cell_4_4 cell_4_5 cell_4_6 cell_4_7 cell_4_8 cell_4_9) true))
(assert
 (and (distinct cell_5_1 cell_5_2 cell_5_3 cell_5_4 cell_5_5 cell_5_6 cell_5_7 cell_5_8 cell_5_9) true))
(assert
 (and (distinct cell_6_1 cell_6_2 cell_6_3 cell_6_4 cell_6_5 cell_6_6 cell_6_7 cell_6_8 cell_6_9) true))
(assert
 (and (distinct cell_7_1 cell_7_2 cell_7_3 cell_7_4 cell_7_5 cell_7_6 cell_7_7 cell_7_8 cell_7_9) true))
(assert
 (and (distinct cell_8_1 cell_8_2 cell_8_3 cell_8_4 cell_8_5 cell_8_6 cell_8_7 cell_8_8 cell_8_9) true))
(assert
 (and (distinct cell_9_1 cell_9_2 cell_9_3 cell_9_4 cell_9_5 cell_9_6 cell_9_7 cell_9_8 cell_9_9) true))
(assert
 (and (distinct cell_1_1 cell_2_1 cell_3_1 cell_4_1 cell_5_1 cell_6_1 cell_7_1 cell_8_1 cell_9_1) true))
(assert
 (and (distinct cell_1_2 cell_2_2 cell_3_2 cell_4_2 cell_5_2 cell_6_2 cell_7_2 cell_8_2 cell_9_2) true))
(assert
 (and (distinct cell_1_3 cell_2_3 cell_3_3 cell_4_3 cell_5_3 cell_6_3 cell_7_3 cell_8_3 cell_9_3) true))
(assert
 (and (distinct cell_1_4 cell_2_4 cell_3_4 cell_4_4 cell_5_4 cell_6_4 cell_7_4 cell_8_4 cell_9_4) true))
(assert
 (and (distinct cell_1_5 cell_2_5 cell_3_5 cell_4_5 cell_5_5 cell_6_5 cell_7_5 cell_8_5 cell_9_5) true))
(assert
 (and (distinct cell_1_6 cell_2_6 cell_3_6 cell_4_6 cell_5_6 cell_6_6 cell_7_6 cell_8_6 cell_9_6) true))
(assert
 (and (distinct cell_1_7 cell_2_7 cell_3_7 cell_4_7 cell_5_7 cell_6_7 cell_7_7 cell_8_7 cell_9_7) true))
(assert
 (and (distinct cell_1_8 cell_2_8 cell_3_8 cell_4_8 cell_5_8 cell_6_8 cell_7_8 cell_8_8 cell_9_8) true))
(assert
 (and (distinct cell_1_9 cell_2_9 cell_3_9 cell_4_9 cell_5_9 cell_6_9 cell_7_9 cell_8_9 cell_9_9) true))
(assert
 (and (distinct cell_1_1 cell_1_2 cell_1_3 cell_2_1 cell_2_2 cell_2_3 cell_3_1 cell_3_2 cell_3_3) true))
(assert
 (and (distinct cell_1_4 cell_1_5 cell_1_6 cell_2_4 cell_2_5 cell_2_6 cell_3_4 cell_3_5 cell_3_6) true))
(assert
 (and (distinct cell_1_7 cell_1_8 cell_1_9 cell_2_7 cell_2_8 cell_2_9 cell_3_7 cell_3_8 cell_3_9) true))
(assert
 (and (distinct cell_4_1 cell_4_2 cell_4_3 cell_5_1 cell_5_2 cell_5_3 cell_6_1 cell_6_2 cell_6_3) true))
(assert
 (and (distinct cell_4_4 cell_4_5 cell_4_6 cell_5_4 cell_5_5 cell_5_6 cell_6_4 cell_6_5 cell_6_6) true))
(assert
 (and (distinct cell_4_7 cell_4_8 cell_4_9 cell_5_7 cell_5_8 cell_5_9 cell_6_7 cell_6_8 cell_6_9) true))
(assert
 (and (distinct cell_7_1 cell_7_2 cell_7_3 cell_8_1 cell_8_2 cell_8_3 cell_9_1 cell_9_2 cell_9_3) true))
(assert
 (and (distinct cell_7_4 cell_7_5 cell_7_6 cell_8_4 cell_8_5 cell_8_6 cell_9_4 cell_9_5 cell_9_6) true))
(assert
 (and (distinct cell_7_7 cell_7_8 cell_7_9 cell_8_7 cell_8_8 cell_8_9 cell_9_7 cell_9_8 cell_9_9) true))
(assert
 (let (($x1947 (and (distinct cell_5_9 cell_6_8 cell_7_7 cell_8_6) true)))
 (let (($x1515 (and (distinct cell_2_9 cell_3_8 cell_4_7 cell_5_6 cell_6_5 cell_7_4 cell_8_3 cell_9_2) true)))
 (let (($x2907 (and (distinct cell_1_8 cell_2_7 cell_3_6 cell_4_5 cell_5_4 cell_6_3 cell_7_2 cell_8_1) true)))
 (let (($x2145 (and (distinct cell_1_5 cell_2_4 cell_3_3 cell_4_2) true)))
 (let (($x1574 (and (distinct cell_5_1 cell_6_2 cell_7_3 cell_8_4) true)))
 (let (($x1527 (and (distinct cell_2_1 cell_3_2 cell_4_3 cell_5_4 cell_6_5 cell_7_6 cell_8_7 cell_9_8) true)))
 (let (($x1684 (and (distinct cell_1_2 cell_2_3 cell_3_4 cell_4_5 cell_5_6 cell_6_7 cell_7_8 cell_8_9) true)))
 (let (($x1803 (and (distinct cell_1_5 cell_2_6 cell_3_7 cell_4_8) true)))
 (and $x1803 $x1684 $x1527 $x1574 $x2145 $x2907 $x1515 $x1947))))))))))
(assert
 (= cell_6_8 1))
(check-sat)
